SDVRP instances/p04/p04_1090_tsplib0_splitx10_0.vrp
NAME:.\SDVRP_splitx10_
BEST_KNOWN: 0
COMMENT: 0
DIMENSION: 916
CAPACITY: 2000
EDGE_WEIGHT_FORMAT: FUNCTION
EDGE_WEIGHT_TYPE: EXACT_2D
NODE_COORD_SECTION
1 0.00000 0.00000
2 2 17
3 2 17
4 2 17
5 2 17
6 2 17
7 2 17
8 2 17
9 2 17
10 14 14
11 14 14
12 14 14
13 14 14
14 17 29
15 17 29
16 17 29
17 17 29
18 17 29
19 -15 -9
20 -15 -9
21 -15 -9
22 -15 -9
23 -15 -9
24 -15 -9
25 -15 -9
26 -15 -9
27 5 -5
28 5 -5
29 5 -5
30 5 -5
31 5 -5
32 5 -5
33 5 -5
34 -14 12
35 -14 12
36 -14 12
37 -14 12
38 -14 12
39 -14 12
40 -14 12
41 -14 12
42 -14 12
43 -18 28
44 -18 28
45 -18 28
46 -18 28
47 -18 28
48 -18 28
49 -18 28
50 -18 28
51 -4 27
52 -4 27
53 -4 27
54 -4 27
55 -4 27
56 -4 27
57 17 -2
58 17 -2
59 17 -2
60 17 -2
61 16 -14
62 16 -14
63 16 -14
64 16 -14
65 7 6
66 7 6
67 7 6
68 7 6
69 7 6
70 7 6
71 7 6
72 7 6
73 7 6
74 -4 -3
75 -4 -3
76 -4 -3
77 -4 -3
78 -30 -10
79 -30 -10
80 -30 -10
81 -30 -10
82 -30 -10
83 -23 7
84 -23 7
85 -23 7
86 -23 7
87 -23 7
88 1 -19
89 1 -19
90 1 -19
91 1 -19
92 1 -19
93 17 6
94 17 6
95 17 6
96 17 6
97 17 6
98 17 6
99 -8 -12
100 -8 -12
101 -8 -12
102 -8 -12
103 -18 -2
104 -18 -2
105 -18 -2
106 -18 -2
107 -22 -22
108 -22 -22
109 -22 -22
110 -22 -22
111 -22 -22
112 -22 -22
113 -22 -22
114 -22 -22
115 22 23
116 22 23
117 22 23
118 22 23
119 22 23
120 22 23
121 22 23
122 27 7
123 27 7
124 27 7
125 27 7
126 27 7
127 7 22
128 7 22
129 7 22
130 7 22
131 -19 22
132 -19 22
133 -19 22
134 -19 22
135 -19 22
136 -27 17
137 -27 17
138 -27 17
139 -27 17
140 -27 17
141 -27 17
142 -28 3
143 -28 3
144 -28 3
145 -28 3
146 -28 3
147 -28 3
148 -28 3
149 -28 3
150 -8 33
151 -8 33
152 -8 33
153 -8 33
154 -8 33
155 -8 33
156 -8 33
157 -8 33
158 -5 13
159 -5 13
160 -5 13
161 -5 13
162 8 32
163 8 32
164 8 32
165 8 32
166 8 32
167 8 32
168 23 13
169 23 13
170 23 13
171 23 -8
172 23 -8
173 23 -8
174 23 -8
175 23 -8
176 2 34
177 2 34
178 2 34
179 2 34
180 2 34
181 2 34
182 2 34
183 2 34
184 3 11
185 3 11
186 3 11
187 3 11
188 3 11
189 3 11
190 3 11
191 3 11
192 11 -25
193 11 -25
194 11 -25
195 11 -25
196 11 -25
197 11 -25
198 26 -2
199 26 -2
200 26 -2
201 26 -2
202 27 28
203 27 28
204 27 28
205 27 28
206 27 28
207 27 28
208 27 28
209 27 28
210 28 34
211 28 34
212 28 34
213 28 34
214 28 34
215 28 34
216 -3 -13
217 -3 -13
218 -3 -13
219 -3 -13
220 -3 -13
221 -3 -13
222 10 0
223 10 0
224 10 0
225 10 0
226 10 0
227 10 0
228 10 0
229 24 -20
230 24 -20
231 24 -20
232 24 -20
233 24 -20
234 24 -20
235 24 -20
236 -30 -29
237 -30 -29
238 -30 -29
239 -30 -29
240 -30 -29
241 -30 -29
242 -30 -29
243 -25 -18
244 -25 -18
245 -14 -25
246 -14 -25
247 -30 29
248 -30 29
249 -30 29
250 -30 29
251 -5 -20
252 -5 -20
253 -5 -20
254 -5 -20
255 -5 -20
256 -5 -20
257 4 -25
258 4 -25
259 4 -25
260 4 -25
261 -3 4
262 -3 4
263 -3 4
264 -3 4
265 -3 4
266 -10 -3
267 -10 -3
268 -10 -3
269 -10 -3
270 -10 -3
271 -10 -3
272 -10 -3
273 -10 -3
274 -10 20
275 -10 20
276 -10 20
277 -10 20
278 -10 20
279 -10 20
280 -10 20
281 13 -7
282 13 -7
283 13 -7
284 13 -7
285 13 -7
286 13 -7
287 13 -7
288 13 -7
289 21 2
290 21 2
291 21 2
292 21 2
293 21 2
294 21 2
295 21 2
296 21 2
297 21 2
298 6 14
299 6 14
300 6 14
301 6 14
302 6 14
303 6 14
304 0 -18
305 0 -18
306 0 -18
307 0 -18
308 0 -18
309 0 -18
310 20 10
311 20 10
312 20 10
313 20 -15
314 20 -15
315 20 -15
316 20 -15
317 20 -15
318 20 -15
319 20 -15
320 20 -15
321 -20 -5
322 -20 -5
323 -20 -5
324 -20 -5
325 -20 -5
326 -20 -5
327 -20 -5
328 -20 -5
329 -20 -5
330 -10 -5
331 -10 -5
332 -10 -5
333 -10 -5
334 -10 -5
335 -10 -5
336 -10 -5
337 -15 15
338 -15 15
339 -15 15
340 -15 15
341 -15 15
342 -15 15
343 -15 15
344 -25 8
345 -25 8
346 -25 8
347 -25 8
348 -25 8
349 20 25
350 20 25
351 20 25
352 20 25
353 -5 25
354 -5 25
355 -5 25
356 -5 25
357 -5 25
358 -15 30
359 -15 30
360 -15 30
361 -15 30
362 -15 30
363 15 0
364 15 0
365 15 0
366 -5 -10
367 -5 -10
368 -5 -10
369 -20 -25
370 -20 -25
371 -20 -25
372 -20 -25
373 -20 -25
374 -20 -25
375 -5 -30
376 -5 -30
377 -5 -30
378 -5 -30
379 -5 -30
380 -5 -30
381 -25 -15
382 -25 -15
383 -25 -15
384 -25 -15
385 -25 -15
386 -25 -15
387 -30 -5
388 -30 -5
389 -30 -5
390 -30 -5
391 -30 -5
392 -30 -5
393 -30 -5
394 -30 -5
395 -15 5
396 -15 5
397 -15 5
398 -15 5
399 -20 25
400 -20 25
401 -20 25
402 -20 25
403 -20 25
404 -20 25
405 -20 25
406 -20 25
407 -20 25
408 10 30
409 10 30
410 10 30
411 10 30
412 10 30
413 10 30
414 10 30
415 10 30
416 10 30
417 10 -15
418 10 -15
419 10 -15
420 10 -15
421 10 -15
422 10 -15
423 10 -25
424 10 -25
425 10 -25
426 10 -25
427 10 -25
428 10 -25
429 20 -30
430 20 -30
431 20 -30
432 20 -30
433 20 -30
434 20 -30
435 20 -30
436 30 0
437 30 0
438 30 0
439 30 0
440 30 0
441 30 0
442 30 0
443 30 0
444 30 0
445 30 0
446 30 -15
447 30 -15
448 30 -15
449 30 -15
450 30 -15
451 10 -5
452 10 -5
453 10 -5
454 10 -5
455 0 5
456 0 5
457 0 5
458 0 5
459 0 5
460 0 5
461 6 2
462 6 2
463 6 2
464 6 2
465 6 2
466 6 2
467 6 2
468 29 7
469 29 7
470 29 7
471 29 7
472 29 7
473 5 25
474 5 25
475 5 25
476 5 25
477 5 25
478 5 25
479 5 25
480 5 25
481 -4 17
482 -4 17
483 -4 17
484 -4 17
485 -4 17
486 -4 17
487 0 34
488 0 34
489 0 34
490 0 34
491 0 34
492 18 17
493 18 17
494 18 17
495 18 17
496 18 17
497 18 17
498 18 17
499 18 17
500 30 20
501 30 20
502 30 20
503 30 20
504 28 30
505 28 30
506 28 30
507 28 30
508 28 30
509 28 30
510 28 30
511 28 30
512 28 30
513 -33 25
514 -33 25
515 -33 25
516 -33 25
517 -33 25
518 -33 25
519 -15 -15
520 -15 -15
521 -15 -15
522 -15 -15
523 -15 -15
524 -15 -15
525 -15 -15
526 -15 -15
527 -15 -15
528 -30 -30
529 -30 -30
530 -30 -30
531 -30 -30
532 -30 -30
533 -30 -30
534 -30 -30
535 -30 -30
536 -30 -30
537 25 -23
538 25 -23
539 25 -23
540 25 -23
541 25 -23
542 25 -23
543 25 -23
544 25 -23
545 5 -10
546 5 -10
547 5 -10
548 5 -10
549 5 -10
550 5 -10
551 5 -10
552 7 -28
553 7 -28
554 7 -28
555 7 -28
556 7 -28
557 -11 -23
558 -11 -23
559 -11 -23
560 -11 -23
561 -11 -23
562 -12 -32
563 -12 -32
564 -12 -32
565 -12 -32
566 -12 -32
567 -12 -32
568 -24 -21
569 -24 -21
570 -24 -21
571 -24 -21
572 -24 -21
573 -29 3
574 -29 3
575 -29 3
576 -29 3
577 -29 3
578 -29 3
579 -29 3
580 -29 3
581 -33 13
582 -33 13
583 -33 13
584 -33 13
585 -33 13
586 -33 13
587 -33 13
588 -27 21
589 -27 21
590 -27 21
591 -27 21
592 -27 21
593 -27 21
594 -22 17
595 -22 17
596 -22 17
597 -22 17
598 -22 17
599 -22 17
600 -29 33
601 -29 33
602 -29 33
603 -29 33
604 -29 33
605 12 12
606 12 12
607 12 12
608 12 12
609 12 12
610 14 23
611 14 23
612 14 23
613 14 23
614 14 23
615 14 23
616 14 23
617 -8 8
618 -8 8
619 -8 8
620 -8 8
621 -8 8
622 -8 8
623 -8 8
624 -8 8
625 2 -4
626 2 -4
627 2 -4
628 2 -4
629 22 -6
630 22 -6
631 22 -6
632 22 -6
633 22 -6
634 22 -6
635 28 -12
636 28 -12
637 28 -12
638 18 -23
639 18 -23
640 18 -23
641 18 -23
642 18 -23
643 -3 -23
644 -3 -23
645 -3 -23
646 -3 -23
647 1 -9
648 1 -9
649 1 -9
650 1 -9
651 1 -9
652 1 -9
653 1 -9
654 1 -9
655 -14 -11
656 -14 -11
657 -14 -11
658 -18 -1
659 -18 -1
660 -18 -1
661 -18 -1
662 -18 -1
663 -18 -1
664 -18 -1
665 -18 -1
666 -23 -11
667 -23 -11
668 -23 -11
669 -23 -11
670 -23 -11
671 -23 -11
672 -23 -11
673 -23 -11
674 -11 23
675 -11 23
676 -11 23
677 -11 23
678 -11 23
679 -11 23
680 -8 34
681 -8 34
682 -20 42
683 -20 42
684 -20 42
685 -20 42
686 -20 42
687 -20 42
688 -20 42
689 27 42
690 27 42
691 27 42
692 27 42
693 14 38
694 14 38
695 14 38
696 32 -30
697 32 -30
698 32 -30
699 32 -30
700 32 -30
701 32 -30
702 32 -30
703 32 -30
704 21 4
705 21 4
706 21 4
707 21 4
708 21 4
709 21 4
710 21 4
711 2 12
712 2 12
713 2 12
714 2 12
715 2 12
716 2 21
717 2 21
718 2 21
719 2 21
720 2 21
721 2 21
722 2 21
723 2 21
724 22 33
725 22 33
726 22 33
727 22 33
728 22 33
729 12 -19
730 12 -19
731 12 -19
732 12 -19
733 12 -19
734 12 -19
735 12 -19
736 9 -18
737 9 -18
738 9 -18
739 9 -18
740 9 -18
741 11 -22
742 11 -22
743 11 -22
744 14 -24
745 14 -24
746 14 -24
747 14 -24
748 14 -24
749 14 7
750 14 7
751 14 7
752 14 7
753 14 7
754 14 7
755 18 8
756 18 8
757 18 8
758 18 8
759 18 8
760 18 8
761 18 8
762 18 8
763 26 17
764 26 17
765 26 17
766 26 17
767 26 17
768 26 17
769 26 17
770 26 17
771 22 13
772 22 13
773 22 13
774 22 13
775 22 13
776 22 13
777 22 13
778 22 13
779 21 2
780 21 2
781 21 2
782 21 2
783 21 2
784 20 19
785 20 19
786 20 19
787 20 19
788 -20 12
789 -20 12
790 -20 12
791 -20 12
792 -20 12
793 -20 12
794 -20 12
795 -20 12
796 -21 2
797 -21 2
798 -21 2
799 -21 2
800 -21 2
801 -21 2
802 -24 -4
803 -24 -4
804 -24 -4
805 -24 -4
806 -24 -4
807 -24 -4
808 -24 -4
809 -19 -13
810 -19 -13
811 -19 -13
812 -19 -13
813 -19 -13
814 -19 -13
815 -19 -13
816 -31 -17
817 -31 -17
818 -31 -17
819 -31 -17
820 -31 -17
821 -7 -17
822 -7 -17
823 -7 -17
824 -7 -17
825 -7 -17
826 -7 -17
827 -7 -17
828 -7 -17
829 -9 17
830 -9 17
831 -9 17
832 -9 17
833 -9 0
834 -9 0
835 -9 0
836 -9 0
837 -9 0
838 -9 0
839 -4 32
840 -4 32
841 -4 32
842 -4 32
843 -4 32
844 -4 32
845 -20 -16
846 -20 -16
847 -20 -16
848 -20 -16
849 -20 -16
850 -20 -16
851 -20 -16
852 -20 -16
853 -13 -13
854 -13 -13
855 -13 -13
856 -13 -13
857 -13 -13
858 -13 -13
859 -13 -13
860 -13 -13
861 -13 -13
862 -17 -11
863 -17 -11
864 -17 -11
865 -17 -11
866 -17 -11
867 -17 -11
868 -9 -8
869 -9 -8
870 -9 -8
871 -9 -8
872 -9 -8
873 -9 -8
874 -10 -11
875 -10 -11
876 -10 -11
877 -10 -11
878 -10 -11
879 -10 -11
880 -13 -8
881 -13 -8
882 -13 -8
883 -13 -8
884 -13 -8
885 -13 -8
886 -13 -8
887 -10 -14
888 -10 -14
889 -10 -14
890 -10 -14
891 -10 -14
892 -10 -14
893 -10 -14
894 -10 -14
895 -10 -14
896 -10 -14
897 -16 -14
898 -16 -14
899 -16 -14
900 -16 -14
901 -16 -14
902 -15 -9
903 -15 -9
904 -15 -9
905 -15 -9
906 -15 -9
907 -15 -9
908 -15 -9
909 -15 -9
910 -17 -17
911 -17 -17
912 -17 -17
913 -17 -17
914 -17 -17
915 -17 -17
916 -17 -17
DEMAND_SECTION
1 0
2 400
3 400
4 400
5 200
6 100
7 20
8 20
9 20
10 400
11 400
12 20
13 10
14 400
15 100
16 20
17 20
18 20
19 400
20 400
21 200
22 20
23 20
24 20
25 20
26 10
27 400
28 400
29 400
30 400
31 20
32 20
33 10
34 400
35 400
36 400
37 200
38 100
39 20
40 20
41 20
42 10
43 400
44 400
45 100
46 20
47 20
48 20
49 20
50 10
51 200
52 100
53 20
54 20
55 20
56 10
57 400
58 100
59 20
60 10
61 200
62 20
63 20
64 10
65 400
66 400
67 400
68 200
69 20
70 20
71 20
72 20
73 10
74 400
75 400
76 20
77 10
78 400
79 400
80 100
81 20
82 20
83 400
84 400
85 200
86 20
87 10
88 400
89 400
90 400
91 100
92 20
93 400
94 200
95 20
96 20
97 20
98 10
99 200
100 100
101 20
102 10
103 400
104 400
105 200
106 10
107 400
108 400
109 400
110 200
111 100
112 20
113 20
114 20
115 400
116 400
117 200
118 20
119 20
120 20
121 10
122 200
123 100
124 20
125 20
126 20
127 400
128 400
129 400
130 10
131 400
132 400
133 400
134 20
135 20
136 400
137 400
138 200
139 100
140 20
141 10
142 400
143 400
144 400
145 200
146 20
147 20
148 20
149 10
150 400
151 400
152 400
153 100
154 20
155 20
156 20
157 10
158 200
159 20
160 20
161 10
162 400
163 400
164 400
165 200
166 20
167 20
168 400
169 20
170 20
171 200
172 100
173 20
174 20
175 20
176 400
177 400
178 400
179 200
180 100
181 20
182 20
183 20
184 400
185 400
186 400
187 200
188 20
189 20
190 20
191 20
192 400
193 400
194 400
195 200
196 100
197 20
198 400
199 100
200 20
201 20
202 400
203 400
204 400
205 200
206 100
207 20
208 20
209 10
210 400
211 400
212 100
213 20
214 20
215 20
216 400
217 400
218 400
219 200
220 20
221 20
222 400
223 400
224 100
225 20
226 20
227 20
228 10
229 400
230 400
231 100
232 20
233 20
234 20
235 10
236 400
237 400
238 400
239 200
240 100
241 20
242 10
243 400
244 100
245 200
246 100
247 400
248 400
249 400
250 10
251 400
252 400
253 400
254 20
255 20
256 20
257 400
258 400
259 400
260 400
261 400
262 200
263 20
264 20
265 10
266 400
267 400
268 100
269 20
270 20
271 20
272 20
273 10
274 400
275 400
276 20
277 20
278 20
279 20
280 10
281 400
282 400
283 400
284 200
285 100
286 20
287 20
288 10
289 400
290 400
291 200
292 100
293 20
294 20
295 20
296 20
297 10
298 400
299 400
300 400
301 20
302 20
303 20
304 400
305 400
306 400
307 20
308 20
309 10
310 200
311 100
312 20
313 400
314 400
315 400
316 400
317 20
318 20
319 20
320 10
321 400
322 400
323 400
324 100
325 20
326 20
327 20
328 20
329 10
330 400
331 400
332 400
333 100
334 20
335 20
336 20
337 400
338 200
339 20
340 20
341 20
342 20
343 10
344 400
345 400
346 400
347 100
348 20
349 400
350 400
351 20
352 20
353 400
354 200
355 100
356 20
357 20
358 400
359 400
360 400
361 400
362 10
363 400
364 200
365 20
366 400
367 200
368 100
369 400
370 200
371 20
372 20
373 20
374 10
375 400
376 200
377 100
378 20
379 20
380 20
381 400
382 400
383 100
384 20
385 20
386 20
387 400
388 400
389 400
390 200
391 100
392 20
393 20
394 20
395 200
396 100
397 20
398 20
399 400
400 400
401 400
402 400
403 100
404 20
405 20
406 20
407 10
408 400
409 400
410 400
411 200
412 100
413 20
414 20
415 20
416 20
417 400
418 400
419 400
420 400
421 100
422 10
423 400
424 400
425 400
426 400
427 20
428 10
429 400
430 400
431 400
432 200
433 100
434 20
435 20
436 400
437 400
438 400
439 400
440 100
441 20
442 20
443 20
444 20
445 10
446 200
447 20
448 20
449 20
450 20
451 400
452 200
453 100
454 20
455 400
456 400
457 200
458 100
459 20
460 10
461 400
462 400
463 400
464 100
465 20
466 20
467 10
468 400
469 400
470 200
471 100
472 10
473 400
474 400
475 400
476 200
477 20
478 20
479 20
480 20
481 400
482 400
483 400
484 20
485 20
486 10
487 400
488 200
489 20
490 20
491 10
492 400
493 400
494 400
495 20
496 20
497 20
498 20
499 10
500 400
501 400
502 400
503 20
504 400
505 400
506 400
507 400
508 100
509 20
510 20
511 20
512 10
513 400
514 400
515 400
516 200
517 20
518 20
519 400
520 400
521 400
522 400
523 100
524 20
525 20
526 20
527 10
528 400
529 400
530 400
531 200
532 20
533 20
534 20
535 20
536 10
537 400
538 400
539 400
540 200
541 100
542 20
543 20
544 20
545 200
546 100
547 20
548 20
549 20
550 20
551 10
552 400
553 400
554 400
555 200
556 100
557 400
558 400
559 200
560 100
561 20
562 400
563 20
564 20
565 20
566 20
567 10
568 400
569 400
570 400
571 400
572 100
573 400
574 400
575 400
576 20
577 20
578 20
579 20
580 10
581 400
582 400
583 400
584 200
585 20
586 20
587 20
588 400
589 400
590 400
591 200
592 20
593 10
594 400
595 400
596 20
597 20
598 20
599 20
600 400
601 400
602 400
603 200
604 20
605 200
606 100
607 20
608 20
609 20
610 400
611 400
612 400
613 20
614 20
615 20
616 10
617 400
618 400
619 400
620 200
621 20
622 20
623 20
624 10
625 400
626 400
627 400
628 200
629 400
630 400
631 400
632 400
633 100
634 20
635 400
636 400
637 100
638 400
639 100
640 20
641 20
642 10
643 200
644 100
645 20
646 20
647 400
648 400
649 200
650 20
651 20
652 20
653 20
654 10
655 400
656 200
657 100
658 400
659 400
660 400
661 400
662 20
663 20
664 20
665 10
666 400
667 400
668 400
669 400
670 20
671 20
672 20
673 10
674 400
675 400
676 400
677 20
678 20
679 20
680 200
681 20
682 400
683 200
684 20
685 20
686 20
687 20
688 10
689 400
690 400
691 400
692 100
693 400
694 400
695 20
696 400
697 200
698 100
699 20
700 20
701 20
702 20
703 10
704 400
705 400
706 400
707 200
708 100
709 20
710 10
711 400
712 400
713 400
714 200
715 20
716 400
717 400
718 400
719 400
720 20
721 20
722 20
723 20
724 400
725 200
726 100
727 20
728 20
729 400
730 400
731 100
732 20
733 20
734 20
735 20
736 200
737 20
738 20
739 20
740 20
741 400
742 400
743 10
744 400
745 400
746 400
747 20
748 20
749 400
750 400
751 200
752 20
753 20
754 10
755 400
756 400
757 400
758 400
759 100
760 20
761 20
762 10
763 400
764 400
765 100
766 20
767 20
768 20
769 20
770 10
771 400
772 400
773 400
774 20
775 20
776 20
777 20
778 10
779 400
780 400
781 100
782 20
783 10
784 400
785 400
786 400
787 10
788 400
789 400
790 200
791 100
792 20
793 20
794 20
795 10
796 400
797 400
798 400
799 200
800 20
801 20
802 400
803 400
804 400
805 100
806 20
807 20
808 20
809 400
810 400
811 400
812 200
813 20
814 20
815 20
816 400
817 400
818 200
819 100
820 20
821 400
822 400
823 200
824 20
825 20
826 20
827 20
828 10
829 400
830 200
831 100
832 10
833 400
834 200
835 20
836 20
837 20
838 20
839 400
840 400
841 400
842 400
843 100
844 10
845 400
846 400
847 200
848 20
849 20
850 20
851 20
852 10
853 400
854 400
855 200
856 100
857 20
858 20
859 20
860 20
861 10
862 400
863 400
864 200
865 100
866 20
867 10
868 400
869 20
870 20
871 20
872 20
873 10
874 400
875 400
876 400
877 20
878 20
879 10
880 400
881 400
882 400
883 20
884 20
885 20
886 20
887 400
888 400
889 400
890 400
891 100
892 20
893 20
894 20
895 20
896 10
897 400
898 100
899 20
900 20
901 10
902 400
903 400
904 200
905 20
906 20
907 20
908 20
909 10
910 400
911 200
912 100
913 20
914 20
915 20
916 10
DEPOT_SECTION
1
-1
EOF