SDVRP instances/p04/p04_1090_tsplib0_splitx10_0.sol
915 -1 3 126 128 127 -6 5 7 716 722 474 475 478 473 476 472 -8 4 2 718 715 721 717 720 719 -10 9 610 611 609 -16 14 15 691 690 688 689 209 211 120 117 -17 13 724 723 727 725 726 349 348 350 351 -28 29 26 27 31 32 30 -37 246 603 600 599 602 601 -39 40 38 41 34 36 33 35 831 828 160 159 158 -42 47 682 683 681 686 687 684 685 361 358 273 278 277 279 -45 44 48 43 49 46 360 359 357 157 -50 53 54 55 51 52 680 679 150 155 156 152 151 149 153 154 -63 61 62 60 433 428 429 434 432 431 430 735 -72 67 71 66 69 68 70 64 65 464 465 462 -74 76 75 73 265 272 269 271 836 835 834 837 833 832 -82 343 344 141 142 -89 259 257 258 256 -94 96 754 757 755 761 756 758 759 760 -97 95 93 92 749 748 753 750 752 605 604 607 606 -99 101 245 244 562 564 561 565 563 566 379 376 374 377 378 375 642 644 645 643 -100 98 895 890 887 888 886 891 893 892 889 -102 103 657 660 659 -105 104 326 323 322 321 324 320 861 865 -124 122 121 125 123 468 467 470 469 471 703 709 707 708 -129 410 407 411 409 408 415 165 166 161 -132 130 134 131 133 338 336 340 337 342 341 339 -137 135 136 140 597 598 594 596 595 593 -139 138 515 514 517 513 512 516 587 -146 145 147 143 144 148 572 577 576 574 575 579 573 578 -177 179 176 181 182 178 180 175 486 488 -189 185 183 455 459 454 -190 188 187 186 184 297 299 298 301 300 302 -191 193 424 423 425 -196 192 195 194 746 743 745 744 747 -197 447 445 448 449 446 635 636 634 173 174 171 172 170 633 -200 199 198 436 437 441 443 440 442 444 438 439 435 -219 215 216 217 220 218 652 646 -224 225 227 226 222 223 221 461 460 463 466 -230 698 696 695 697 701 702 700 699 542 539 538 537 543 541 -231 229 228 233 232 234 536 540 641 640 638 639 637 -235 237 241 239 532 528 369 371 368 373 372 370 -238 240 236 530 531 534 527 533 535 529 910 -248 249 247 591 590 592 588 589 791 794 790 793 -254 255 250 251 253 824 822 825 821 827 823 820 826 -263 264 262 261 260 617 618 616 620 621 623 -270 268 267 266 331 332 333 329 330 335 334 -285 281 282 280 450 452 453 451 -287 283 284 286 312 318 319 315 313 314 317 316 -306 305 252 560 559 557 558 556 -308 307 304 303 91 90 87 88 627 -311 309 502 500 499 501 764 763 768 -325 328 327 80 81 78 77 79 803 807 804 802 -346 345 347 585 583 586 584 581 580 582 -356 352 353 354 355 484 481 480 482 485 483 -362 364 58 59 56 291 293 781 706 705 704 -363 57 628 631 630 632 629 -365 367 366 876 877 874 875 870 871 868 867 -382 242 243 567 568 571 570 -383 380 384 385 381 819 817 815 818 816 -391 389 390 392 393 388 387 386 806 801 805 -397 396 394 395 84 86 83 85 787 789 788 792 -399 401 403 402 406 405 404 400 398 619 622 -412 414 413 694 693 692 162 163 164 479 477 -418 421 417 416 419 545 544 549 546 547 548 550 -420 729 731 730 734 732 728 733 742 741 740 739 737 738 736 -426 427 422 555 553 551 552 554 -457 458 456 711 712 713 714 710 -489 490 487 841 838 843 842 839 840 -492 491 784 783 785 -496 494 498 495 493 497 118 119 115 116 114 762 769 765 766 767 -506 508 206 203 205 202 201 204 207 208 786 -569 111 106 112 109 107 108 110 113 894 -608 11 12 503 504 509 505 510 511 507 213 214 212 210 612 615 613 614 -626 624 625 650 647 653 648 651 649 -654 906 21 20 904 884 880 879 881 882 883 885 -655 656 847 850 849 845 851 844 846 848 909 913 915 914 912 911 -661 664 663 662 658 798 795 797 796 799 800 -671 666 667 669 668 670 672 665 863 -674 676 675 678 673 677 275 276 274 829 830 -751 310 167 168 169 774 775 773 776 777 770 772 771 -779 290 288 292 782 295 294 778 296 289 780 -811 810 809 808 812 813 814 866 862 864 -859 860 525 524 520 518 519 523 526 522 521 897 899 872 869 -878 873 858 857 852 856 855 854 853 900 898 896 -905 23 908 902 901 903 24 19 18 25 22 907 0 





OBJ=
4667.350
BEST_KNOWN=
0.000